sat
(
  (define-fun inv ((x!0 Int) (x!1 Int) (x!2 Int) (x!3 Int) (x!4 Int)) Bool
    (let ((a!1 (not (>= (+ x!2 x!3 (* (- 1) x!4)) 1)))
          (a!2 (not (<= (+ x!2 x!3 (* (- 1) x!4)) (- 1)))))
      (and a!1 a!2)))
)
